c SAT Generator for power-law distributed variable frequencies
c -g u -v 20 -c 91 -k 3 -p 2.750000 -b 3.200000 -f /home/schmidt/Devel/ni-kop-sat/data/ensemble/ruf20-91/ruf20-91-402 -u 1 -U 1 -s 4174015934
p cnf 20 91
-4 10 13 0
-11 -14 20 0
-6 -7 12 0
-5 7 -17 0
1 -3 -18 0
8 12 -18 0
7 10 13 0
7 11 19 0
6 -8 -20 0
3 -16 -17 0
5 6 10 0
11 13 19 0
-5 17 -18 0
-4 -13 -15 0
-2 -12 17 0
-3 -5 14 0
-4 -6 -7 0
-9 -11 17 0
-4 -5 8 0
-1 7 17 0
-10 -12 17 0
3 -4 -15 0
-2 -16 -20 0
2 10 -17 0
12 16 -20 0
1 6 -17 0
5 10 17 0
-1 -8 16 0
4 -15 16 0
-6 12 -13 0
-2 -4 7 0
-9 14 -20 0
-9 -13 -20 0
4 -9 19 0
-6 -7 15 0
5 17 19 0
8 -9 -19 0
5 -8 9 0
1 -2 16 0
2 -3 19 0
-4 10 -14 0
1 -14 20 0
-4 10 -19 0
-5 8 -20 0
-3 5 -7 0
4 8 -20 0
-12 13 -19 0
1 7 -18 0
8 14 15 0
-12 -13 19 0
5 -11 16 0
-13 -18 -20 0
1 9 -12 0
-1 -4 18 0
1 14 20 0
-2 3 16 0
-7 -16 -18 0
-3 -12 15 0
-8 11 -20 0
3 8 -20 0
2 8 15 0
1 -16 -20 0
1 -13 17 0
9 12 18 0
-4 13 19 0
4 8 -11 0
-11 -12 -18 0
-10 -11 -20 0
-1 -6 9 0
5 7 -13 0
-2 16 17 0
7 -16 -17 0
11 15 -18 0
-7 -14 -16 0
-9 10 -18 0
5 -10 15 0
-3 -10 -14 0
6 -16 18 0
8 -11 -17 0
1 -5 12 0
1 15 19 0
6 7 19 0
2 -7 -14 0
11 -12 -17 0
-2 14 -18 0
-5 10 19 0
8 -9 -18 0
-3 -14 18 0
1 3 4 0
9 -17 18 0
2 3 -10 0
